0000000000000000
0000000000000000
0000111110100000
0000111111000000
0000111111000000
0000001111000000
0000000001100000
0000000001100000
0000000001000000
0000000001100000
0000000011110000
0001111100110000
0001111010110000
0001111000010000
0010000000011000
0000000000000000
